peakDumbCharging = 18500; 
Machine = anon_enum(16); 
machineSpeed = [3700,3700,3700,3700,3700,3700,3700,3700,3700,3700,3700,3700,3700,3700,3700,3700]; 
machineLoad = [3700,3700,3700,3700,3700,3700,3700,3700,3700,3700,3700,3700,3700,3700,3700,3700]; 
Car = anon_enum(8); 
demandCar = [7520,18160,28080,23440,14240,15720,4960,22480]; 
arrivalCar = [75,69,54,52,50,49,48,47]; 
departureCar = [78,75,64,76,59,55,52,60]; 
